letting n =  10
letting blocks =  [[2, 1], [2, 3], [2, 4], [2, 8], [2, 9], [3, 2], [3, 3], [3, 4], [3, 9], [4, 8], [5, 3], [5, 6], [5, 8], [6, 2], [6, 9], [7, 3], [7, 4], [7, 5], [7, 8], [8, 1], [8, 3], [9, 5], [10, 6], [10, 9]]
